Route #1: 0 22 40 26 10 11 37 33 0
Route #2: 0 2 12 39 34 19 31 0
Route #3: 0 8 27 24 6 29 9 36 41 0
Route #4: 0 3 30 20 1 35 43 38 0
Route #5: 0 4 17 25 23 21 5 28 0
Route #6: 0 14 13 18 16 42 32 15 7 0
Cost 1296:
